c read Graph
c width = 104
c time = 330 ms
c width = 14
c time = 444 ms
c width = 13
c time = 488 ms
c width = 12
c time = 495 ms
c width = 11
c time = 537 ms
c width = 10
c time = 598 ms
c width = 9
c time = 3039 ms
c width = 9
c time = 4658 ms
s td 108 10 117
b 1 1 2 14
b 2 2 3 14 15
b 3 11 12 25 26
b 4 3 14 15 27
b 5 11 25 26 39
b 6 79 92 93 106
b 7 91 103 104 116
b 8 79 93 106 107
b 9 91 103 115 116
b 10 3 4 15 16 27
b 11 4 5 15 16 17 27
b 12 5 6 15 16 17 18 27
b 13 6 7 15 16 17 18 19 27
b 14 7 8 15 16 17 18 19 20 27
b 15 8 9 15 16 17 18 19 20 21 27
b 16 9 15 16 17 18 19 20 21 27 28
b 17 9 16 17 18 19 20 21 27 28 29
b 18 9 17 18 19 20 21 27 28 29 30
b 19 9 18 19 20 21 27 28 29 30 31
b 20 9 19 20 21 27 28 29 30 31 32
b 21 9 20 21 27 28 29 30 31 32 33
b 22 9 21 27 28 29 30 31 32 33 40
b 23 9 21 28 29 30 31 32 33 40 41
b 24 9 21 29 30 31 32 33 40 41 42
b 25 9 21 30 31 32 33 40 41 42 43
b 26 9 21 31 32 33 40 41 42 43 44
b 27 9 21 32 33 40 41 42 43 44 45
b 28 9 21 33 40 41 42 43 44 45 53
b 29 9 21 33 41 42 43 44 45 53 54
b 30 9 21 33 42 43 44 45 53 54 55
b 31 9 21 33 43 44 45 53 54 55 56
b 32 9 21 33 44 45 53 54 55 56 57
b 33 9 21 33 45 53 54 55 56 57 66
b 34 9 21 33 45 54 55 56 57 66 67
b 35 9 21 33 45 55 56 57 66 67 68
b 36 9 21 33 45 56 57 66 67 68 69
b 37 9 21 33 45 57 66 67 68 69 79
b 38 9 21 33 45 57 67 68 69 79 80
b 39 9 21 33 45 57 68 69 79 80 81
b 40 9 21 33 45 57 69 79 80 81 93
b 41 9 21 33 45 57 69 79 81 93 107
b 42 9 21 33 45 57 69 81 93 94 107
b 43 9 21 33 45 57 69 81 82 94 107
b 44 9 21 33 45 57 69 70 82 94 107
b 45 9 21 33 45 57 58 70 82 94 107
b 46 9 21 33 45 46 58 70 82 94 107
b 47 9 21 33 34 46 58 70 82 94 107
b 48 9 21 34 46 58 70 82 94 95 107
b 49 9 21 34 46 58 70 82 83 95 107
b 50 9 21 34 46 58 70 71 83 95 107
b 51 9 21 34 46 58 59 71 83 95 107
b 52 9 21 34 46 47 59 71 83 95 107
b 53 9 21 34 35 47 59 71 83 95 107
b 54 9 21 23 35 47 59 71 83 95 107
b 55 9 23 35 47 59 71 83 95 107 108
b 56 9 23 35 47 59 71 83 95 96 108
b 57 9 23 35 47 59 71 83 84 96 108
b 58 9 23 35 47 59 71 72 84 96 108
b 59 9 23 35 47 59 60 72 84 96 108
b 60 9 23 35 47 48 60 72 84 96 108
b 61 9 23 35 36 48 60 72 84 96 108
b 62 9 23 36 48 60 72 84 96 108 109
b 63 9 23 36 48 60 72 84 96 97 109
b 64 9 23 36 48 60 72 84 85 97 109
b 65 9 23 36 48 60 72 73 85 97 109
b 66 9 23 36 48 60 61 73 85 97 109
b 67 9 23 36 48 61 73 85 97 109 110
b 68 9 23 36 48 61 73 85 97 98 110
b 69 9 23 36 48 61 73 85 86 98 110
b 70 9 23 36 48 61 73 74 86 98 110
b 71 9 23 36 48 61 62 74 86 98 110
b 72 9 23 36 48 50 62 74 86 98 110
b 73 9 23 36 50 62 74 86 98 110 111
b 74 9 23 36 50 62 74 86 98 99 111
b 75 9 23 36 50 62 74 86 87 99 111
b 76 9 23 36 50 62 74 87 99 111 112
b 77 9 23 36 50 62 74 87 99 100 112
b 78 9 23 36 50 62 74 87 88 100 112
b 79 9 23 36 50 62 74 76 88 100 112
b 80 9 23 36 50 62 64 76 88 100 112
b 81 9 23 36 50 64 76 78 88 100 112
b 82 50 62 63 64 76
b 83 64 76 78 88 100 112 114
b 84 100 112 113 114
b 85 64 76 78 88 100 102 114
b 86 88 100 101 102 114
b 87 64 76 78 88 90 102 114
b 88 78 90 102 114 115
b 89 78 90 91 102 115
b 90 90 91 102 103 115
b 91 64 76 77 78 90
b 92 76 88 89 90 102
b 93 62 74 75 76 88
b 94 36 48 49 50 62
b 95 9 23 36 50 52 64 78
b 96 9 23 36 38 50 52 64
b 97 38 50 51 52 64
b 98 9 23 24 36 38 50 52
b 99 24 36 37 38 50
b 100 9 11 23 24 38 52
b 101 11 24 38 39 52
b 102 11 24 25 38 39
b 103 9 10 11 23
b 104 52 64 65 78
b 105 9 21 22 23 35
b 106 104 116 117
b 107 92 105 106
b 108 12 13 26
1 2
2 4
3 108
3 5
4 10
5 102
6 107
6 8
7 106
7 9
8 41
9 90
10 11
11 12
12 13
13 14
14 15
15 16
16 17
17 18
18 19
19 20
20 21
21 22
22 23
23 24
24 25
25 26
26 27
27 28
28 29
29 30
30 31
31 32
32 33
33 34
34 35
35 36
36 37
37 38
38 39
39 40
40 41
41 42
42 43
43 44
44 45
45 46
46 47
47 48
48 49
49 50
50 51
51 52
52 53
53 54
54 105
54 55
55 56
56 57
57 58
58 59
59 60
60 61
61 62
62 63
63 64
64 65
65 66
66 67
67 68
68 69
69 70
70 71
71 72
72 94
72 73
73 74
74 75
75 76
76 77
77 78
78 79
79 93
79 80
80 82
80 81
81 83
81 95
83 84
83 85
85 86
85 87
87 88
87 91
87 92
88 89
89 90
95 104
95 96
96 97
96 98
98 99
98 100
100 103
100 101
101 102
